p cnf 26 276
2 3 4 5 6 0
7 8 9 10 11 0
12 13 14 15 16 0
17 18 19 20 21 0
22 23 24 25 26 0
-6 -5 0
-11 -10 0
-16 -15 0
-21 -20 0
-26 -25 0
-6 -4 0
-5 -4 0
-11 -9 0
-10 -9 0
-16 -14 0
-15 -14 0
-21 -19 0
-20 -19 0
-26 -24 0
-25 -24 0
-6 -3 0
-5 -3 0
-4 -3 0
-11 -8 0
-10 -8 0
-9 -8 0
-16 -13 0
-15 -13 0
-14 -13 0
-21 -18 0
-20 -18 0
-19 -18 0
-26 -23 0
-25 -23 0
-24 -23 0
-6 -2 0
-5 -2 0
-4 -2 0
-3 -2 0
-11 -7 0
-10 -7 0
-9 -7 0
-8 -7 0
-16 -12 0
-15 -12 0
-14 -12 0
-13 -12 0
-21 -17 0
-20 -17 0
-19 -17 0
-18 -17 0
-26 -22 0
-25 -22 0
-24 -22 0
-23 -22 0
-11 -6 0
-10 -5 0
-9 -4 0
-8 -3 0
-7 -2 0
-16 -6 0
-15 -5 0
-14 -4 0
-13 -3 0
-12 -2 0
-21 -6 0
-20 -5 0
-19 -4 0
-18 -3 0
-17 -2 0
-26 -6 0
-25 -5 0
-24 -4 0
-23 -3 0
-22 -2 0
-6 -11 0
-5 -10 0
-4 -9 0
-3 -8 0
-2 -7 0
-16 -11 0
-15 -10 0
-14 -9 0
-13 -8 0
-12 -7 0
-21 -11 0
-20 -10 0
-19 -9 0
-18 -8 0
-17 -7 0
-26 -11 0
-25 -10 0
-24 -9 0
-23 -8 0
-22 -7 0
-6 -16 0
-5 -15 0
-4 -14 0
-3 -13 0
-2 -12 0
-11 -16 0
-10 -15 0
-9 -14 0
-8 -13 0
-7 -12 0
-21 -16 0
-20 -15 0
-19 -14 0
-18 -13 0
-17 -12 0
-26 -16 0
-25 -15 0
-24 -14 0
-23 -13 0
-22 -12 0
-6 -21 0
-5 -20 0
-4 -19 0
-3 -18 0
-2 -17 0
-11 -21 0
-10 -20 0
-9 -19 0
-8 -18 0
-7 -17 0
-16 -21 0
-15 -20 0
-14 -19 0
-13 -18 0
-12 -17 0
-26 -21 0
-25 -20 0
-24 -19 0
-23 -18 0
-22 -17 0
-6 -26 0
-5 -25 0
-4 -24 0
-3 -23 0
-2 -22 0
-11 -26 0
-10 -25 0
-9 -24 0
-8 -23 0
-7 -22 0
-16 -26 0
-15 -25 0
-14 -24 0
-13 -23 0
-12 -22 0
-21 -26 0
-20 -25 0
-19 -24 0
-18 -23 0
-17 -22 0
-10 -6 0
-14 -6 0
-18 -6 0
-22 -6 0
-11 -5 0
-9 -5 0
-13 -5 0
-17 -5 0
-10 -4 0
-8 -4 0
-16 -4 0
-12 -4 0
-9 -3 0
-7 -3 0
-15 -3 0
-21 -3 0
-8 -2 0
-14 -2 0
-20 -2 0
-26 -2 0
-5 -11 0
-15 -11 0
-19 -11 0
-23 -11 0
-6 -10 0
-4 -10 0
-16 -10 0
-14 -10 0
-18 -10 0
-22 -10 0
-5 -9 0
-3 -9 0
-15 -9 0
-13 -9 0
-21 -9 0
-17 -9 0
-4 -8 0
-2 -8 0
-14 -8 0
-12 -8 0
-20 -8 0
-26 -8 0
-3 -7 0
-13 -7 0
-19 -7 0
-25 -7 0
-4 -16 0
-10 -16 0
-20 -16 0
-24 -16 0
-3 -15 0
-11 -15 0
-9 -15 0
-21 -15 0
-19 -15 0
-23 -15 0
-6 -14 0
-2 -14 0
-10 -14 0
-8 -14 0
-20 -14 0
-18 -14 0
-26 -14 0
-22 -14 0
-5 -13 0
-9 -13 0
-7 -13 0
-19 -13 0
-17 -13 0
-25 -13 0
-4 -12 0
-8 -12 0
-18 -12 0
-24 -12 0
-3 -21 0
-9 -21 0
-15 -21 0
-25 -21 0
-2 -20 0
-8 -20 0
-16 -20 0
-14 -20 0
-26 -20 0
-24 -20 0
-11 -19 0
-7 -19 0
-15 -19 0
-13 -19 0
-25 -19 0
-23 -19 0
-6 -18 0
-10 -18 0
-14 -18 0
-12 -18 0
-24 -18 0
-22 -18 0
-5 -17 0
-9 -17 0
-13 -17 0
-23 -17 0
-2 -26 0
-8 -26 0
-14 -26 0
-20 -26 0
-7 -25 0
-13 -25 0
-21 -25 0
-19 -25 0
-16 -24 0
-12 -24 0
-20 -24 0
-18 -24 0
-11 -23 0
-15 -23 0
-19 -23 0
-17 -23 0
-6 -22 0
-10 -22 0
-14 -22 0
-18 -22 0
-1 0
